p tw 237 266
1 2
2 113
3 14
3 176
4 5
4 6
5 6
6 7
7 8
8 9
9 10
10 11
11 12
12 13
13 15
14 25
15 16
16 17
17 18
18 19
19 20
20 21
20 23
21 22
22 23
22 13
23 24
24 26
25 36
26 27
27 28
28 29
29 30
29 62
30 31
31 32
32 33
33 34
34 35
35 37
36 47
37 38
38 39
39 40
40 41
41 42
42 43
42 53
43 44
44 45
44 53
45 46
46 48
46 53
47 58
48 49
49 50
49 59
50 51
51 52
51 59
52 62
53 54
54 55
55 56
55 62
56 57
57 234
58 69
59 60
60 61
61 234
62 63
63 64
64 65
65 66
66 67
67 68
68 70
69 80
70 71
71 72
72 73
73 74
74 75
75 76
76 77
77 78
77 117
78 79
79 81
80 91
80 171
81 82
82 83
82 84
83 153
84 85
85 86
86 87
87 88
88 89
89 90
90 92
91 102
92 93
93 94
94 95
95 96
96 97
97 98
97 108
98 99
99 100
99 110
100 101
101 103
101 110
102 114
102 156
103 104
104 105
104 73
105 106
106 107
106 73
107 117
108 109
109 153
110 111
111 112
112 115
113 161
114 125
115 116
116 117
117 118
118 119
119 120
120 121
121 122
122 123
123 124
124 126
125 136
125 159
126 127
127 128
128 129
129 130
129 151
130 131
131 132
132 133
133 134
134 135
135 137
136 147
137 138
138 139
139 140
140 141
141 142
142 143
142 145
143 144
144 145
144 151
145 146
146 148
147 155
147 163
148 149
149 150
150 124
151 152
152 153
153 154
155 14
156 157
157 158
158 14
159 160
160 162
161 172
162 14
163 164
164 165
165 166
166 167
167 168
168 169
168 14
169 170
170 14
171 173
172 183
173 174
174 175
175 161
176 177
177 178
178 179
178 180
179 153
180 181
181 182
182 184
182 187
183 194
184 185
185 186
186 190
187 188
188 189
189 190
190 191
191 192
192 193
193 195
194 205
194 176
195 196
196 197
197 198
198 199
199 200
200 201
200 212
201 202
202 203
203 204
204 206
205 216
206 207
207 208
208 209
209 210
210 211
211 212
212 213
213 214
214 215
215 217
216 227
217 218
218 219
219 220
220 221
221 222
222 223
223 224
224 225
225 226
226 228
227 3
228 229
229 230
230 231
231 232
232 233
233 234
234 235
235 236
236 237
237 4
